% seed = 5390893

mint = 69;
% maxt = 217;

nActs = 42;
dur = [0,2,6,4,8,9,3,2,5,10,7,10,6,6,9,4,1,10,2,2,1,8,2,9,2,1,3,10,1,8,2,8,6,8,7,2,4,7,8,8,6,0];

nSkills = 4;
sreq = [| 0,0,0,0,
	| 1,1,2,7,
	| 2,3,5,0,
	| 3,4,3,2,
	| 3,4,3,4,
	| 0,5,3,3,
	| 1,4,3,2,
	| 6,4,4,5,
	| 0,0,6,5,
	| 4,5,0,0,
	| 2,3,0,3,
	| 5,2,1,5,
	| 3,3,2,3,
	| 0,1,7,4,
	| 1,4,6,1,
	| 0,6,5,0,
	| 5,6,0,0,
	| 7,4,0,0,
	| 0,0,2,5,
	| 3,3,6,4,
	| 2,5,3,2,
	| 2,0,0,5,
	| 0,1,7,0,
	| 4,2,2,3,
	| 7,2,4,3,
	| 0,0,7,7,
	| 3,4,3,1,
	| 0,6,4,7,
	| 7,3,1,5,
	| 2,4,0,4,
	| 0,2,4,5,
	| 0,0,7,5,
	| 3,3,6,4,
	| 6,1,4,3,
	| 3,4,6,2,
	| 0,0,4,4,
	| 4,0,3,6,
	| 4,3,3,0,
	| 3,4,3,4,
	| 3,2,2,5,
	| 4,4,6,0,
	| 0,0,0,0, |];

nResources = 38;
mastery = [| false,false,true,true,
	| false,false,true,false,
	| false,true,true,true,
	| false,true,true,true,
	| true,false,true,false,
	| true,true,false,false,
	| false,true,false,false,
	| false,true,true,true,
	| true,false,true,true,
	| false,false,true,false,
	| false,false,true,false,
	| true,false,false,false,
	| false,false,true,true,
	| true,false,true,false,
	| true,false,true,true,
	| false,false,false,true,
	| false,false,false,true,
	| true,false,false,false,
	| true,true,false,false,
	| false,false,false,true,
	| true,true,true,false,
	| true,false,false,false,
	| false,true,true,true,
	| true,false,false,false,
	| false,true,true,true,
	| false,true,true,true,
	| false,true,true,true,
	| true,true,false,true,
	| true,false,false,false,
	| true,true,false,true,
	| false,false,false,true,
	| false,false,false,true,
	| false,true,false,true,
	| false,false,true,false,
	| false,true,true,false,
	| false,false,true,false,
	| true,false,false,true,
	| false,true,true,true, |];

nPrecs = 73;
pred = [1,1,1,2,2,2,3,3,3,4,4,4,5,5,5,6,6,6,7,7,8,8,8,9,9,9,10,10,11,12,13,13,14,14,15,16,16,16,17,18,19,19,19,20,21,22,22,23,23,23,24,25,25,26,26,27,28,29,30,30,31,31,32,33,34,34,35,36,37,38,39,40,41];
succ = [2,3,4,18,11,32,13,5,7,25,38,24,9,6,8,17,10,19,23,16,41,27,40,34,29,24,12,15,12,35,14,22,27,19,28,20,21,30,39,33,26,29,31,26,33,25,23,36,29,32,32,31,40,41,34,37,36,37,35,31,41,33,35,39,36,37,40,38,38,39,42,42,42];

nUnrels = 501;
unpred = [2,2,2,2,2,2,2,2,2,2,2,2,2,2,2,2,2,2,2,2,2,2,2,2,2,2,2,2,2,2,2,3,3,3,4,4,4,4,4,4,4,4,4,4,4,4,4,4,4,4,4,4,4,4,4,4,4,4,4,4,4,5,5,5,5,5,5,5,5,5,5,5,5,6,6,6,6,6,6,6,6,6,6,6,6,6,6,6,6,6,7,7,7,7,7,7,7,7,7,7,7,7,7,7,7,7,8,8,8,8,8,8,8,8,8,8,8,8,8,8,8,8,8,8,8,8,8,8,8,8,8,8,8,9,9,9,9,9,9,9,9,9,9,9,9,9,9,9,9,9,9,9,9,9,9,10,10,10,10,10,10,10,10,10,10,10,10,10,10,10,10,10,10,10,10,10,10,10,11,11,11,11,11,11,11,11,11,11,11,11,11,11,11,11,11,11,11,11,11,11,11,11,11,11,11,12,12,12,12,12,12,12,12,12,12,12,12,12,12,12,12,12,12,12,12,12,12,12,12,12,12,12,13,13,13,13,13,13,13,13,13,14,14,14,14,14,14,14,14,14,14,14,14,14,14,14,15,15,15,15,15,15,15,15,15,15,15,15,15,15,15,15,15,15,15,15,15,15,16,16,16,16,16,16,16,16,16,16,16,17,17,17,17,17,17,17,17,17,17,17,17,17,17,17,17,17,17,17,17,17,17,17,18,18,18,18,18,18,18,18,18,18,18,18,18,18,18,18,18,18,18,18,18,19,19,19,19,19,19,19,19,19,19,19,19,20,20,20,20,20,20,20,20,20,20,20,20,20,20,21,21,21,21,21,21,21,21,21,21,21,21,21,21,21,21,21,21,22,22,22,22,22,22,23,23,23,23,23,23,23,23,23,23,24,24,24,24,24,24,24,24,24,24,24,24,24,24,25,25,25,25,25,25,25,25,25,25,25,26,26,26,26,26,26,26,26,26,27,27,27,27,27,27,27,27,27,27,27,28,28,28,28,28,28,28,28,28,28,29,29,29,29,29,29,29,29,29,30,30,30,30,30,31,31,31,31,31,31,31,32,32,32,32,32,32,32,33,33,33,33,33,33,33,34,34,34,35,35,35,35,35,36,36,36,37,37,38,38,39,39,40];
unsucc = [3,4,5,6,7,8,9,10,13,14,15,16,17,19,20,21,22,23,24,25,26,27,28,29,30,31,34,36,37,38,41,4,11,18,5,6,7,8,9,10,11,12,13,14,15,16,17,18,19,20,21,22,23,26,27,28,29,30,34,36,37,7,11,13,14,16,18,20,21,22,23,25,30,7,8,9,11,13,14,16,18,20,21,22,23,24,25,27,30,32,8,9,10,11,12,13,14,15,17,18,19,22,24,25,27,28,9,10,11,12,13,14,15,16,17,18,19,20,21,22,23,24,25,26,28,29,30,31,32,33,34,35,36,10,11,12,13,14,15,16,17,18,19,20,21,22,23,25,26,27,28,30,31,33,41,11,13,14,16,17,18,19,20,21,22,23,24,25,26,27,29,30,31,32,33,34,37,41,13,14,15,16,17,18,19,20,21,22,23,24,25,26,27,28,29,30,31,32,33,34,36,37,38,39,41,13,14,15,16,17,18,19,20,21,22,23,24,25,26,27,28,29,30,31,32,33,34,36,37,38,39,41,15,16,17,18,20,21,24,28,30,15,16,17,18,20,21,22,23,24,25,28,30,32,35,40,16,17,18,19,20,21,22,23,24,25,26,27,29,30,31,32,33,34,35,37,40,41,17,18,19,22,23,24,25,27,28,29,32,18,19,20,21,22,23,24,25,26,27,28,29,30,31,32,33,34,35,36,37,38,40,41,19,20,21,22,23,24,25,26,27,28,29,30,31,32,34,35,36,37,38,40,41,20,21,22,23,24,25,27,28,30,32,35,40,21,22,23,24,25,27,28,29,30,31,32,33,35,40,22,23,24,25,26,27,28,29,30,31,32,34,35,36,37,38,40,41,24,26,27,28,30,34,24,25,26,27,28,30,31,33,34,41,25,26,27,28,29,30,31,33,34,36,37,38,39,41,26,27,28,29,30,32,34,35,36,37,38,27,28,29,30,31,32,33,35,40,28,29,30,31,32,33,34,35,36,40,41,29,30,31,32,33,34,35,37,40,41,30,31,32,33,34,35,36,40,41,32,34,36,37,38,32,34,35,36,37,38,40,33,34,36,37,38,39,41,34,35,36,37,38,40,41,35,40,41,36,37,38,39,41,37,40,41,40,41,40,41,40,41,41];

USEFUL_RES = [{},
	{1,2,3,4,5,6,7,8,9,10,11,12,13,14,15,16,17,18,19,20,21,22,23,24,25,26,27,28,29,30,31,32,33,34,35,36,37,38},
	{1,2,3,4,5,6,7,8,9,10,11,12,13,14,15,18,19,21,22,23,24,25,26,27,28,29,30,33,34,35,36,37,38},
	{1,2,3,4,5,6,7,8,9,10,11,12,13,14,15,16,17,18,19,20,21,22,23,24,25,26,27,28,29,30,31,32,33,34,35,36,37,38},
	{1,2,3,4,5,6,7,8,9,10,11,12,13,14,15,16,17,18,19,20,21,22,23,24,25,26,27,28,29,30,31,32,33,34,35,36,37,38},
	{1,2,3,4,5,6,7,8,9,10,11,13,14,15,16,17,19,20,21,23,25,26,27,28,30,31,32,33,34,35,36,37,38},
	{1,2,3,4,5,6,7,8,9,10,11,12,13,14,15,16,17,18,19,20,21,22,23,24,25,26,27,28,29,30,31,32,33,34,35,36,37,38},
	{1,2,3,4,5,6,7,8,9,10,11,12,13,14,15,16,17,18,19,20,21,22,23,24,25,26,27,28,29,30,31,32,33,34,35,36,37,38},
	{1,2,3,4,5,8,9,10,11,13,14,15,16,17,20,21,23,25,26,27,28,30,31,32,33,34,35,36,37,38},
	{3,4,5,6,7,8,9,12,14,15,18,19,21,22,23,24,25,26,27,28,29,30,33,35,37,38},
	{1,3,4,5,6,7,8,9,12,13,14,15,16,17,18,19,20,21,22,23,24,25,26,27,28,29,30,31,32,33,35,37,38},
	{1,2,3,4,5,6,7,8,9,10,11,12,13,14,15,16,17,18,19,20,21,22,23,24,25,26,27,28,29,30,31,32,33,34,35,36,37,38},
	{1,2,3,4,5,6,7,8,9,10,11,12,13,14,15,16,17,18,19,20,21,22,23,24,25,26,27,28,29,30,31,32,33,34,35,36,37,38},
	{1,2,3,4,5,6,7,8,9,10,11,13,14,15,16,17,19,20,21,23,25,26,27,28,30,31,32,33,34,35,36,37,38},
	{1,2,3,4,5,6,7,8,9,10,11,12,13,14,15,16,17,18,19,20,21,22,23,24,25,26,27,28,29,30,31,32,33,34,35,36,37,38},
	{1,2,3,4,5,6,7,8,9,10,11,13,14,15,19,21,23,25,26,27,28,30,33,34,35,36,38},
	{3,4,5,6,7,8,9,12,14,15,18,19,21,22,23,24,25,26,27,28,29,30,33,35,37,38},
	{3,4,5,6,7,8,9,12,14,15,18,19,21,22,23,24,25,26,27,28,29,30,33,35,37,38},
	{1,2,3,4,5,8,9,10,11,13,14,15,16,17,20,21,23,25,26,27,28,30,31,32,33,34,35,36,37,38},
	{1,2,3,4,5,6,7,8,9,10,11,12,13,14,15,16,17,18,19,20,21,22,23,24,25,26,27,28,29,30,31,32,33,34,35,36,37,38},
	{1,2,3,4,5,6,7,8,9,10,11,12,13,14,15,16,17,18,19,20,21,22,23,24,25,26,27,28,29,30,31,32,33,34,35,36,37,38},
	{1,3,4,5,6,8,9,12,13,14,15,16,17,18,19,20,21,22,23,24,25,26,27,28,29,30,31,32,33,37,38},
	{1,2,3,4,5,6,7,8,9,10,11,13,14,15,19,21,23,25,26,27,28,30,33,34,35,36,38},
	{1,2,3,4,5,6,7,8,9,10,11,12,13,14,15,16,17,18,19,20,21,22,23,24,25,26,27,28,29,30,31,32,33,34,35,36,37,38},
	{1,2,3,4,5,6,7,8,9,10,11,12,13,14,15,16,17,18,19,20,21,22,23,24,25,26,27,28,29,30,31,32,33,34,35,36,37,38},
	{1,2,3,4,5,8,9,10,11,13,14,15,16,17,20,21,23,25,26,27,28,30,31,32,33,34,35,36,37,38},
	{1,2,3,4,5,6,7,8,9,10,11,12,13,14,15,16,17,18,19,20,21,22,23,24,25,26,27,28,29,30,31,32,33,34,35,36,37,38},
	{1,2,3,4,5,6,7,8,9,10,11,13,14,15,16,17,19,20,21,23,25,26,27,28,30,31,32,33,34,35,36,37,38},
	{1,2,3,4,5,6,7,8,9,10,11,12,13,14,15,16,17,18,19,20,21,22,23,24,25,26,27,28,29,30,31,32,33,34,35,36,37,38},
	{1,3,4,5,6,7,8,9,12,13,14,15,16,17,18,19,20,21,22,23,24,25,26,27,28,29,30,31,32,33,35,37,38},
	{1,2,3,4,5,6,7,8,9,10,11,13,14,15,16,17,19,20,21,23,25,26,27,28,30,31,32,33,34,35,36,37,38},
	{1,2,3,4,5,8,9,10,11,13,14,15,16,17,20,21,23,25,26,27,28,30,31,32,33,34,35,36,37,38},
	{1,2,3,4,5,6,7,8,9,10,11,12,13,14,15,16,17,18,19,20,21,22,23,24,25,26,27,28,29,30,31,32,33,34,35,36,37,38},
	{1,2,3,4,5,6,7,8,9,10,11,12,13,14,15,16,17,18,19,20,21,22,23,24,25,26,27,28,29,30,31,32,33,34,35,36,37,38},
	{1,2,3,4,5,6,7,8,9,10,11,12,13,14,15,16,17,18,19,20,21,22,23,24,25,26,27,28,29,30,31,32,33,34,35,36,37,38},
	{1,2,3,4,5,8,9,10,11,13,14,15,16,17,20,21,23,25,26,27,28,30,31,32,33,34,35,36,37,38},
	{1,2,3,4,5,6,8,9,10,11,12,13,14,15,16,17,18,19,20,21,22,23,24,25,26,27,28,29,30,31,32,33,34,35,36,37,38},
	{1,2,3,4,5,6,7,8,9,10,11,12,13,14,15,18,19,21,22,23,24,25,26,27,28,29,30,33,34,35,36,37,38},
	{1,2,3,4,5,6,7,8,9,10,11,12,13,14,15,16,17,18,19,20,21,22,23,24,25,26,27,28,29,30,31,32,33,34,35,36,37,38},
	{1,2,3,4,5,6,7,8,9,10,11,12,13,14,15,16,17,18,19,20,21,22,23,24,25,26,27,28,29,30,31,32,33,34,35,36,37,38},
	{1,2,3,4,5,6,7,8,9,10,11,12,13,14,15,18,19,21,22,23,24,25,26,27,28,29,30,33,34,35,36,37,38},
	{}];

POTENTIAL_ACT = [{2,3,4,5,6,7,8,9,11,12,13,14,15,16,19,20,21,22,23,24,25,26,27,28,29,30,31,32,33,34,35,36,37,38,39,40,41},
	{2,3,4,5,6,7,8,9,12,13,14,15,16,19,20,21,23,24,25,26,27,28,29,31,32,33,34,35,36,37,38,39,40,41},
	{2,3,4,5,6,7,8,9,10,11,12,13,14,15,16,17,18,19,20,21,22,23,24,25,26,27,28,29,30,31,32,33,34,35,36,37,38,39,40,41},
	{2,3,4,5,6,7,8,9,10,11,12,13,14,15,16,17,18,19,20,21,22,23,24,25,26,27,28,29,30,31,32,33,34,35,36,37,38,39,40,41},
	{2,3,4,5,6,7,8,9,10,11,12,13,14,15,16,17,18,19,20,21,22,23,24,25,26,27,28,29,30,31,32,33,34,35,36,37,38,39,40,41},
	{2,3,4,5,6,7,8,10,11,12,13,14,15,16,17,18,20,21,22,23,24,25,27,28,29,30,31,33,34,35,37,38,39,40,41},
	{2,3,4,5,6,7,8,10,11,12,13,14,15,16,17,18,20,21,23,24,25,27,28,29,30,31,33,34,35,38,39,40,41},
	{2,3,4,5,6,7,8,9,10,11,12,13,14,15,16,17,18,19,20,21,22,23,24,25,26,27,28,29,30,31,32,33,34,35,36,37,38,39,40,41},
	{2,3,4,5,6,7,8,9,10,11,12,13,14,15,16,17,18,19,20,21,22,23,24,25,26,27,28,29,30,31,32,33,34,35,36,37,38,39,40,41},
	{2,3,4,5,6,7,8,9,12,13,14,15,16,19,20,21,23,24,25,26,27,28,29,31,32,33,34,35,36,37,38,39,40,41},
	{2,3,4,5,6,7,8,9,12,13,14,15,16,19,20,21,23,24,25,26,27,28,29,31,32,33,34,35,36,37,38,39,40,41},
	{2,3,4,5,7,8,10,11,12,13,15,17,18,20,21,22,24,25,27,29,30,33,34,35,37,38,39,40,41},
	{2,3,4,5,6,7,8,9,11,12,13,14,15,16,19,20,21,22,23,24,25,26,27,28,29,30,31,32,33,34,35,36,37,38,39,40,41},
	{2,3,4,5,6,7,8,9,10,11,12,13,14,15,16,17,18,19,20,21,22,23,24,25,26,27,28,29,30,31,32,33,34,35,36,37,38,39,40,41},
	{2,3,4,5,6,7,8,9,10,11,12,13,14,15,16,17,18,19,20,21,22,23,24,25,26,27,28,29,30,31,32,33,34,35,36,37,38,39,40,41},
	{2,4,5,6,7,8,9,11,12,13,14,15,19,20,21,22,24,25,26,27,28,29,30,31,32,33,34,35,36,37,39,40},
	{2,4,5,6,7,8,9,11,12,13,14,15,19,20,21,22,24,25,26,27,28,29,30,31,32,33,34,35,36,37,39,40},
	{2,3,4,5,7,8,10,11,12,13,15,17,18,20,21,22,24,25,27,29,30,33,34,35,37,38,39,40,41},
	{2,3,4,5,6,7,8,10,11,12,13,14,15,16,17,18,20,21,22,23,24,25,27,28,29,30,31,33,34,35,37,38,39,40,41},
	{2,4,5,6,7,8,9,11,12,13,14,15,19,20,21,22,24,25,26,27,28,29,30,31,32,33,34,35,36,37,39,40},
	{2,3,4,5,6,7,8,9,10,11,12,13,14,15,16,17,18,19,20,21,22,23,24,25,26,27,28,29,30,31,32,33,34,35,36,37,38,39,40,41},
	{2,3,4,5,7,8,10,11,12,13,15,17,18,20,21,22,24,25,27,29,30,33,34,35,37,38,39,40,41},
	{2,3,4,5,6,7,8,9,10,11,12,13,14,15,16,17,18,19,20,21,22,23,24,25,26,27,28,29,30,31,32,33,34,35,36,37,38,39,40,41},
	{2,3,4,5,7,8,10,11,12,13,15,17,18,20,21,22,24,25,27,29,30,33,34,35,37,38,39,40,41},
	{2,3,4,5,6,7,8,9,10,11,12,13,14,15,16,17,18,19,20,21,22,23,24,25,26,27,28,29,30,31,32,33,34,35,36,37,38,39,40,41},
	{2,3,4,5,6,7,8,9,10,11,12,13,14,15,16,17,18,19,20,21,22,23,24,25,26,27,28,29,30,31,32,33,34,35,36,37,38,39,40,41},
	{2,3,4,5,6,7,8,9,10,11,12,13,14,15,16,17,18,19,20,21,22,23,24,25,26,27,28,29,30,31,32,33,34,35,36,37,38,39,40,41},
	{2,3,4,5,6,7,8,9,10,11,12,13,14,15,16,17,18,19,20,21,22,23,24,25,26,27,28,29,30,31,32,33,34,35,36,37,38,39,40,41},
	{2,3,4,5,7,8,10,11,12,13,15,17,18,20,21,22,24,25,27,29,30,33,34,35,37,38,39,40,41},
	{2,3,4,5,6,7,8,9,10,11,12,13,14,15,16,17,18,19,20,21,22,23,24,25,26,27,28,29,30,31,32,33,34,35,36,37,38,39,40,41},
	{2,4,5,6,7,8,9,11,12,13,14,15,19,20,21,22,24,25,26,27,28,29,30,31,32,33,34,35,36,37,39,40},
	{2,4,5,6,7,8,9,11,12,13,14,15,19,20,21,22,24,25,26,27,28,29,30,31,32,33,34,35,36,37,39,40},
	{2,3,4,5,6,7,8,9,10,11,12,13,14,15,16,17,18,19,20,21,22,23,24,25,26,27,28,29,30,31,32,33,34,35,36,37,38,39,40,41},
	{2,3,4,5,6,7,8,9,12,13,14,15,16,19,20,21,23,24,25,26,27,28,29,31,32,33,34,35,36,37,38,39,40,41},
	{2,3,4,5,6,7,8,9,10,11,12,13,14,15,16,17,18,19,20,21,23,24,25,26,27,28,29,30,31,32,33,34,35,36,37,38,39,40,41},
	{2,3,4,5,6,7,8,9,12,13,14,15,16,19,20,21,23,24,25,26,27,28,29,31,32,33,34,35,36,37,38,39,40,41},
	{2,3,4,5,6,7,8,9,10,11,12,13,14,15,17,18,19,20,21,22,24,25,26,27,28,29,30,31,32,33,34,35,36,37,38,39,40,41},
	{2,3,4,5,6,7,8,9,10,11,12,13,14,15,16,17,18,19,20,21,22,23,24,25,26,27,28,29,30,31,32,33,34,35,36,37,38,39,40,41}];
